32      1       
20      
0       0       3       2       3       4       
2       0       3       9       12      13      
6       6       1       5       
6       0       2       10      23      
8       2       3       6       7       8       
6       0       2       15      22      
6       0       1       14      
5       2       3       11      21      27      
5       0       1       25      
3       0       3       16      19      20      
7       0       1       31      
4       0       1       18      
8       5       1       17      
5       6       1       28      
7       0       1       24      
1       8       2       22      24      
3       0       1       18      
1       9       1       23      
8       8       1       24      
1       1       1       26      
9       6       1       30      
6       0       1       26      
3       7       1       26      
8       2       2       27      30      
3       6       2       29      31      
2       0       2       27      30      
10      0       2       29      31      
5       0       1       29      
7       10      1       32      
2       6       1       32      
1       0       1       32      
0       0       0       